p cnf 74 236
a 26 4 0
e 1 2 3 5 6 7 8 9 10 11 12 13 14 15 16 17 18 19 20 21 22 23 24 25 27 28 29 30 31 32 33 34 35 36 37 38 39 40 41 42 43 44 45 46 47 48 49 50 51 52 53 54 55 56 57 58 59 60 61 62 63 64 65 66 67 68 69 70 71 72 73 74 0
1 2 -3 0
-1 -2 -3 0
1 -2 3 0
-1 2 3 0
-6 -4 -7 0
6 4 -7 0
-6 4 7 0
6 -4 7 0
-7 -8 -9 0
7 8 -9 0
-7 8 9 0
7 -8 9 0
-10 5 0
-10 -9 0
-5 9 10 0
-11 10 0
-11 -7 0
-10 7 11 0
12 -4 0
12 11 0
4 -11 -12 0
-13 3 0
-13 -12 0
-3 12 13 0
-15 -14 0
-15 10 0
14 -10 15 0
-16 13 0
-16 15 0
-13 -15 16 0
-18 2 0
-18 17 0
-2 -17 18 0
19 20 0
-19 20 0
18 -20 -21 0
-18 20 -21 0
18 20 21 0
-18 -20 21 0
10 1 -22 0
-10 -1 -22 0
10 -1 22 0
-10 1 22 0
-23 -22 0
-23 17 0
22 -17 23 0
-22 23 -24 0
22 -23 -24 0
-22 -23 24 0
22 23 24 0
-25 -21 0
-25 -24 0
21 24 25 0
-6 19 -26 0
6 -19 -26 0
-6 -19 26 0
6 19 26 0
27 -10 0
27 10 0
2 -27 -28 0
-2 27 -28 0
2 27 28 0
-2 -27 28 0
29 -8 0
29 -28 0
8 28 -29 0
-26 29 -30 0
26 -29 -30 0
-26 -29 30 0
26 29 30 0
-25 -30 -31 0
25 30 -31 0
-25 30 31 0
25 -30 31 0
-6 9 -32 0
6 -9 -32 0
-6 -9 32 0
6 9 32 0
33 -31 0
33 32 0
31 -32 -33 0
34 16 0
34 33 0
-16 -33 -34 0
22 35 0
-22 35 0
-36 -3 0
-36 -35 0
3 35 36 0
-37 -4 0
-37 -27 0
4 27 37 0
38 -7 0
38 -9 0
7 9 -38 0
39 37 0
39 -38 0
-37 38 -39 0
36 -39 -40 0
-36 39 -40 0
36 39 40 0
-36 -39 40 0
15 3 -41 0
-15 -3 -41 0
15 -3 41 0
-15 3 41 0
42 22 0
42 11 0
-22 -11 -42 0
-43 41 0
-43 -42 0
-41 42 43 0
40 43 -44 0
-40 -43 -44 0
40 -43 44 0
-40 43 44 0
-34 -44 -45 0
34 44 -45 0
-34 44 45 0
34 -44 45 0
-46 23 0
-46 7 0
-23 -7 46 0
-47 8 0
-47 -18 0
-8 18 47 0
10 -1 -48 0
-10 1 -48 0
10 1 48 0
-10 -1 48 0
49 47 0
49 -48 0
-47 48 -49 0
46 49 -50 0
-46 -49 -50 0
46 -49 50 0
-46 49 50 0
-51 -17 0
-51 14 0
17 -14 51 0
-50 51 -52 0
50 -51 -52 0
-50 -51 52 0
50 51 52 0
-53 -18 0
-53 -5 0
18 5 53 0
-54 18 0
-54 11 0
-18 -11 54 0
42 -54 -55 0
-42 54 -55 0
42 54 55 0
-42 -54 55 0
7 21 -56 0
-7 -21 -56 0
7 -21 56 0
-7 21 56 0
-57 55 0
-57 56 0
-55 -56 57 0
58 53 0
58 57 0
-53 -57 -58 0
59 -8 0
59 11 0
8 -11 -59 0
-60 -59 0
-60 28 0
59 -28 60 0
-14 26 -61 0
14 -26 -61 0
-14 -26 61 0
14 26 61 0
62 12 0
62 -15 0
-12 15 -62 0
-6 4 -63 0
6 -4 -63 0
-6 -4 63 0
6 4 63 0
-27 63 -64 0
27 -63 -64 0
-27 -63 64 0
27 63 64 0
-62 -64 -65 0
62 64 -65 0
-62 64 65 0
62 -64 65 0
-66 -61 0
-66 -65 0
61 65 66 0
67 -60 0
67 66 0
60 -66 -67 0
-68 -24 0
-68 -11 0
24 11 68 0
-70 68 0
-70 -69 0
-68 69 70 0
-71 67 0
-71 70 0
-67 -70 71 0
-72 -58 0
-72 -71 0
58 71 72 0
-52 -72 -73 0
52 72 -73 0
-52 72 73 0
52 -72 73 0
-74 45 0
-74 -73 0
-45 73 74 0
54 -55 36 -8 0
74 -4 -25 0
-21 -36 60 -62 0
21 1 -9 -6 0
-65 45 -10 17 -62 25 0
-55 -46 -64 43 -50 54 -49 0
73 -26 41 -68 -21 -59 -11 0
23 20 -50 71 21 58 -4 0
-28 -31 53 -35 26 57 0
70 -74 -15 -73 -10 0
64 -35 -24 -37 -62 -12 0
-51 -23 65 0
-5 16 69 -2 28 0
-10 22 72 -66 24 0
-49 48 69 -2 -17 -43 -28 61 0
-50 -48 67 -10 -13 -60 0
-11 20 16 34 0
-33 67 29 -5 -64 23 -74 0
-64 18 -28 -34 -3 0
-56 18 -38 48 0
8 -62 20 -66 0
74 0
